<?xml version = "1.0" encoding="UTF-8" standalone="yes"?>
<CPLEXSolution version="1.2">
 <header
   problemName="cluster_small"
   objectiveValue="2.3636363636363638"
   solutionTypeValue="1"
   solutionTypeString="basic"
   solutionStatusValue="1"
   solutionStatusString="optimal"
   solutionMethodString="dual"
   primalFeasible="1"
   dualFeasible="1"
   simplexIterations="1"
   writeLevel="1"/>
 <quality
   epRHS="9.9999999999999995e-07"
   epOpt="9.9999999999999995e-07"
   maxPrimalInfeas="0"
   maxDualInfeas="0"
   maxPrimalResidual="1.0658141036401503e-14"
   maxDualResidual="0"
   maxX="0.090909090909090912"
   maxPi="2.3636363636363638"
   maxSlack="211.63636363636363"
   maxRedCost="165.27272727272728"
   kappa="20.499975924499232"/>
 <linearConstraints>
  <constraint name="c0" index="0" status="BS" slack="83" dual="-0"/>
  <constraint name="c1" index="1" status="BS" slack="211.63636363636363" dual="-0"/>
  <constraint name="c2" index="2" status="LL" slack="0" dual="2.3636363636363638"/>
  <constraint name="c3" index="3" status="BS" slack="103.72727272727273" dual="-0"/>
 </linearConstraints>
 <variables>
  <variable name="x0" index="0" status="LL" value="0" reducedCost="-165.27272727272728"/>
  <variable name="x1" index="1" status="LL" value="0" reducedCost="-133.54545454545456"/>
  <variable name="x2" index="2" status="BS" value="0.090909090909090912" reducedCost="0"/>
  <variable name="s0" index="3" status="LL" value="0" reducedCost="0"/>
  <variable name="s1" index="4" status="LL" value="0" reducedCost="0"/>
  <variable name="s2" index="5" status="LL" value="0" reducedCost="-2.3636363636363638"/>
  <variable name="s3" index="6" status="LL" value="0" reducedCost="0"/>
 </variables>
 <objectiveValues>
  <objective index="0" name="" value="2.3636363636363638"/>
 </objectiveValues>
</CPLEXSolution>
